
Gurobi 9.5.0 (linux64) logging started Sun May 22 22:56:59 2022

Set parameter LogFile to value "../results/max3cut_numv160/max3cut_numv160_i160-014_C-RP-MILO_log.txt"
Set parameter LazyConstraints to value 1
Gurobi Optimizer version 9.5.0 build v9.5.0rc5 (linux64)
Thread count: 20 physical cores, 40 logical processors, using up to 10 threads
Optimize a model with 2261698 rows, 37935 columns and 6787859 nonzeros
Model fingerprint: 0x26ea1a96
Variable types: 0 continuous, 37935 integer (37935 binary)
Coefficient statistics:
  Matrix range     [1e+00, 1e+00]
  Objective range  [8e+01, 3e+02]
  Bounds range     [1e+00, 1e+00]
  RHS range        [1e+00, 2e+02]
Presolve removed 1930215 rows and 0 columns (presolve time = 5s) ...
Presolve removed 1930215 rows and 0 columns
Presolve time: 9.07s
Presolved: 331483 rows, 37935 columns, 997214 nonzeros
Variable types: 0 continuous, 37935 integer (37935 binary)

Deterministic concurrent LP optimizer: primal and dual simplex (primal and dual model)
Showing first log only...

Root relaxation presolved: 331483 rows, 37935 columns, 997214 nonzeros


Root simplex log...

Iteration    Objective       Primal Inf.    Dual Inf.      Time
       0    8.7623000e+04   4.690000e+02   4.860000e+09     12s
    3890    7.3443093e+04   5.495324e+01   9.762355e+08     15s
    7095    7.2628706e+04   1.560903e+01   1.469361e+09     20s
Concurrent spin time: 0.92s

Solved with dual simplex (primal model)

Root relaxation: objective 7.260250e+04, 9221 iterations, 13.42 seconds (20.04 work units)
Total elapsed time = 25.12s

    Nodes    |    Current Node    |     Objective Bounds      |     Work
 Expl Unexpl |  Obj  Depth IntInf | Incumbent    BestBd   Gap | It/Node Time

     0     0 72602.5000    0  876          - 72602.5000      -     -   26s
     0     0 72597.6245    0 1461          - 72597.6245      -     -   58s
     0     0 72597.6245    0 1461          - 72597.6245      -     -   64s
     0     0 72595.4356    0 1721          - 72595.4356      -     -  107s
     0     0 72595.2014    0 1727          - 72595.2014      -     -  141s
     0     0 72595.1718    0 1729          - 72595.1718      -     -  143s
     0     0 72595.1644    0 1772          - 72595.1644      -     -  144s
     0     0 72594.6978    0 1718          - 72594.6978      -     -  168s
     0     0 72594.6638    0 1784          - 72594.6638      -     -  201s
     0     0 72594.6431    0 1861          - 72594.6431      -     -  203s
     0     0 72594.6392    0 1864          - 72594.6392      -     -  205s
     0     0 72594.4271    0 2004          - 72594.4271      -     -  231s
     0     0 72594.3235    0 2016          - 72594.3235      -     -  239s
     0     0 72594.2904    0 2113          - 72594.2904      -     -  242s
     0     0 72594.2851    0 2151          - 72594.2851      -     -  244s
     0     0 72594.2508    0 2134          - 72594.2508      -     -  258s
     0     0 72594.2355    0 2247          - 72594.2355      -     -  261s
     0     0 72594.2334    0 2330          - 72594.2334      -     -  264s
     0     0 72594.1987    0 2264          - 72594.1987      -     -  278s
     0     0 72594.1905    0 2263          - 72594.1905      -     -  282s
     0     0 72594.1673    0 2176          - 72594.1673      -     -  292s
     0     0 72594.1670    0 2174          - 72594.1670      -     -  295s
     0     0 72594.1545    0 2330          - 72594.1545      -     -  305s
     0     0 72594.1510    0 2374          - 72594.1510      -     -  310s
     0     0 72594.1450    0 2404          - 72594.1450      -     -  319s
     0     0 72594.1435    0 2303          - 72594.1435      -     -  322s
     0     0 72594.1412    0 2477          - 72594.1412      -     -  332s
     0     0 72594.1412    0 1919          - 72594.1412      -     -  339s
     0     2 72594.1412    0 1906          - 72594.1412      -     -  366s
     3     8 72594.0946    2 1813          - 72594.1412      -  1022  377s
     7    13 72594.0703    3 1764          - 72594.0946      -  2211  384s

Cutting planes:
  Gomory: 4
  MIR: 699
  Zero half: 83
  RLT: 1005
  BQP: 2541

Explored 12 nodes (131857 simplex iterations) in 384.76 seconds (756.22 work units)
Thread count was 10 (of 40 available processors)

Solution count 0

Solve interrupted
Best objective -, best bound 7.259400000000e+04, gap -

User-callback calls 54373, time in user-callback 0.36 sec
